C                                       
1.78355045158
 +2.0000000000  +2.0000000000  +0.0000000000 
 +0.0000000000  +2.0000000000  +2.0000000000 
 +2.0000000000  +0.0000000000  +2.0000000000 
C N V
 14 1 1
Cartesian
 +0.0000000000  +0.0000000000  +0.0000000000 
 +0.5000000000  +0.5000000000  +0.5000000000 
 +1.0000000000  +0.0000000000  +1.0000000000 
 +1.5000000000  +0.5000000000  +1.5000000000 
 +0.0000000000  +1.0000000000  +1.0000000000 
 +0.5000000000  +1.5000000000  +1.5000000000 
 +1.0000000000  +1.0000000000  +2.0000000000 
 +1.5000000000  +1.5000000000  +2.5000000000 
 +1.0000000000  +1.0000000000  +0.0000000000 
 +1.5000000000  +1.5000000000  +0.5000000000 
 +2.0000000000  +1.0000000000  +1.0000000000 
 +2.5000000000  +1.5000000000  +1.5000000000 
 +1.0000000000  +2.0000000000  +1.0000000000 
 +1.5000000000  +2.5000000000  +1.5000000000 
 +2.0000000000  +2.0000000000  +2.0000000000 
 +2.5000000000  +2.5000000000  +2.5000000000 
